\* Problem: GAMSMOD *\

Minimize
 R0000115: + C0000061

Subject To
 R0000001: - C0000001 + C0000002 <= 3.818181818
 R0000002: - C0000002 + C0000003 <= 3.818181818
 R0000003: - C0000003 + C0000004 <= 3.818181818
 R0000004: - C0000004 + C0000005 <= 3.818181818
 R0000005: - C0000005 + C0000006 <= 3.818181818
 R0000006: - C0000006 + C0000007 <= 3.818181818
 R0000007: - C0000007 + C0000008 <= 3.818181818
 R0000008: - C0000008 + C0000009 <= 3.818181818
 R0000009: - C0000009 + C0000010 <= 3.818181818
 R0000010: - C0000011 + C0000012 <= 3.818181818
 R0000011: - C0000012 + C0000013 <= 3.818181818
 R0000012: - C0000013 + C0000014 <= 3.818181818
 R0000013: - C0000014 + C0000015 <= 3.818181818
 R0000014: - C0000015 + C0000016 <= 3.818181818
 R0000015: - C0000016 + C0000017 <= 3.818181818
 R0000016: - C0000017 + C0000018 <= 3.818181818
 R0000017: - C0000018 + C0000019 <= 3.818181818
 R0000018: - C0000019 + C0000020 <= 3.818181818
 R0000019: - C0000021 + C0000022 <= 3.818181818
 R0000020: - C0000022 + C0000023 <= 3.818181818
 R0000021: - C0000023 + C0000024 <= 3.818181818
 R0000022: - C0000024 + C0000025 <= 3.818181818
 R0000023: - C0000025 + C0000026 <= 3.818181818
 R0000024: - C0000026 + C0000027 <= 3.818181818
 R0000025: - C0000027 + C0000028 <= 3.818181818
 R0000026: - C0000028 + C0000029 <= 3.818181818
 R0000027: - C0000029 + C0000030 <= 3.818181818
 R0000028: - C0000031 + C0000032 <= 4.290909091
 R0000029: - C0000032 + C0000033 <= 4.290909091
 R0000030: - C0000033 + C0000034 <= 4.290909091
 R0000031: - C0000034 + C0000035 <= 4.290909091
 R0000032: - C0000035 + C0000036 <= 4.290909091
 R0000033: - C0000036 + C0000037 <= 4.290909091
 R0000034: - C0000037 + C0000038 <= 4.290909091
 R0000035: - C0000038 + C0000039 <= 4.290909091
 R0000036: - C0000039 + C0000040 <= 4.290909091
 R0000037: - C0000041 + C0000042 <= 4.290909091
 R0000038: - C0000042 + C0000043 <= 4.290909091
 R0000039: - C0000043 + C0000044 <= 4.290909091
 R0000040: - C0000044 + C0000045 <= 4.290909091
 R0000041: - C0000045 + C0000046 <= 4.290909091
 R0000042: - C0000046 + C0000047 <= 4.290909091
 R0000043: - C0000047 + C0000048 <= 4.290909091
 R0000044: - C0000048 + C0000049 <= 4.290909091
 R0000045: - C0000049 + C0000050 <= 4.290909091
 R0000046: - C0000051 + C0000052 <= 4.290909091
 R0000047: - C0000052 + C0000053 <= 4.290909091
 R0000048: - C0000053 + C0000054 <= 4.290909091
 R0000049: - C0000054 + C0000055 <= 4.290909091
 R0000050: - C0000055 + C0000056 <= 4.290909091
 R0000051: - C0000056 + C0000057 <= 4.290909091
 R0000052: - C0000057 + C0000058 <= 4.290909091
 R0000053: - C0000058 + C0000059 <= 4.290909091
 R0000054: - C0000059 + C0000060 <= 4.290909091
 R0000055: - C0000001 + C0000002 >= -3.818181818
 R0000056: - C0000002 + C0000003 >= -3.818181818
 R0000057: - C0000003 + C0000004 >= -3.818181818
 R0000058: - C0000004 + C0000005 >= -3.818181818
 R0000059: - C0000005 + C0000006 >= -3.818181818
 R0000060: - C0000006 + C0000007 >= -3.818181818
 R0000061: - C0000007 + C0000008 >= -3.818181818
 R0000062: - C0000008 + C0000009 >= -3.818181818
 R0000063: - C0000009 + C0000010 >= -3.818181818
 R0000064: - C0000011 + C0000012 >= -3.818181818
 R0000065: - C0000012 + C0000013 >= -3.818181818
 R0000066: - C0000013 + C0000014 >= -3.818181818
 R0000067: - C0000014 + C0000015 >= -3.818181818
 R0000068: - C0000015 + C0000016 >= -3.818181818
 R0000069: - C0000016 + C0000017 >= -3.818181818
 R0000070: - C0000017 + C0000018 >= -3.818181818
 R0000071: - C0000018 + C0000019 >= -3.818181818
 R0000072: - C0000019 + C0000020 >= -3.818181818
 R0000073: - C0000021 + C0000022 >= -3.818181818
 R0000074: - C0000022 + C0000023 >= -3.818181818
 R0000075: - C0000023 + C0000024 >= -3.818181818
 R0000076: - C0000024 + C0000025 >= -3.818181818
 R0000077: - C0000025 + C0000026 >= -3.818181818
 R0000078: - C0000026 + C0000027 >= -3.818181818
 R0000079: - C0000027 + C0000028 >= -3.818181818
 R0000080: - C0000028 + C0000029 >= -3.818181818
 R0000081: - C0000029 + C0000030 >= -3.818181818
 R0000082: - C0000031 + C0000032 >= -4.290909091
 R0000083: - C0000032 + C0000033 >= -4.290909091
 R0000084: - C0000033 + C0000034 >= -4.290909091
 R0000085: - C0000034 + C0000035 >= -4.290909091
 R0000086: - C0000035 + C0000036 >= -4.290909091
 R0000087: - C0000036 + C0000037 >= -4.290909091
 R0000088: - C0000037 + C0000038 >= -4.290909091
 R0000089: - C0000038 + C0000039 >= -4.290909091
 R0000090: - C0000039 + C0000040 >= -4.290909091
 R0000091: - C0000041 + C0000042 >= -4.290909091
 R0000092: - C0000042 + C0000043 >= -4.290909091
 R0000093: - C0000043 + C0000044 >= -4.290909091
 R0000094: - C0000044 + C0000045 >= -4.290909091
 R0000095: - C0000045 + C0000046 >= -4.290909091
 R0000096: - C0000046 + C0000047 >= -4.290909091
 R0000097: - C0000047 + C0000048 >= -4.290909091
 R0000098: - C0000048 + C0000049 >= -4.290909091
 R0000099: - C0000049 + C0000050 >= -4.290909091
 R0000100: - C0000051 + C0000052 >= -4.290909091
 R0000101: - C0000052 + C0000053 >= -4.290909091
 R0000102: - C0000053 + C0000054 >= -4.290909091
 R0000103: - C0000054 + C0000055 >= -4.290909091
 R0000104: - C0000055 + C0000056 >= -4.290909091
 R0000105: - C0000056 + C0000057 >= -4.290909091
 R0000106: - C0000057 + C0000058 >= -4.290909091
 R0000107: - C0000058 + C0000059 >= -4.290909091
 R0000108: - C0000059 + C0000060 >= -4.290909091
 R0000109: + 0.381818182 C0000001 + 0.381818182 C0000002
 + 0.381818182 C0000003 + 0.381818182 C0000004 + 0.381818182 C0000005
 + 0.381818182 C0000006 + 0.381818182 C0000007 + 0.381818182 C0000008
 + 0.381818182 C0000009 + 0.381818182 C0000010 - 0.429090909 C0000031
 - 0.429090909 C0000032 - 0.429090909 C0000033 - 0.429090909 C0000034
 - 0.429090909 C0000035 - 0.429090909 C0000036 - 0.429090909 C0000037
 - 0.429090909 C0000038 - 0.429090909 C0000039 - 0.429090909 C0000040
 = -15.73818182
 R0000110: + 0.381818182 C0000011 + 0.381818182 C0000012
 + 0.381818182 C0000013 + 0.381818182 C0000014 + 0.381818182 C0000015
 + 0.381818182 C0000016 + 0.381818182 C0000017 + 0.381818182 C0000018
 + 0.381818182 C0000019 + 0.381818182 C0000020 - 0.429090909 C0000041
 - 0.429090909 C0000042 - 0.429090909 C0000043 - 0.429090909 C0000044
 - 0.429090909 C0000045 - 0.429090909 C0000046 - 0.429090909 C0000047
 - 0.429090909 C0000048 - 0.429090909 C0000049 - 0.429090909 C0000050
 = 14.94545455
 R0000111: + 0.381818182 C0000021 + 0.381818182 C0000022
 + 0.381818182 C0000023 + 0.381818182 C0000024 + 0.381818182 C0000025
 + 0.381818182 C0000026 + 0.381818182 C0000027 + 0.381818182 C0000028
 + 0.381818182 C0000029 + 0.381818182 C0000030 - 0.429090909 C0000051
 - 0.429090909 C0000052 - 0.429090909 C0000053 - 0.429090909 C0000054
 - 0.429090909 C0000055 - 0.429090909 C0000056 - 0.429090909 C0000057
 - 0.429090909 C0000058 - 0.429090909 C0000059 - 0.429090909 C0000060
 = 0
 R0000112: + 0.429090909 C0000031 + 0.429090909 C0000032
 + 0.429090909 C0000033 + 0.429090909 C0000034 + 0.429090909 C0000035
 + 0.429090909 C0000036 + 0.429090909 C0000037 + 0.429090909 C0000038
 + 0.429090909 C0000039 + 0.429090909 C0000040 <= 12.68363636
 R0000113: + 0.429090909 C0000031 + 0.429090909 C0000032
 + 0.429090909 C0000033 + 0.429090909 C0000034 + 0.429090909 C0000035
 + 0.429090909 C0000036 + 0.429090909 C0000037 + 0.429090909 C0000038
 + 0.429090909 C0000039 + 0.429090909 C0000040 >= -4.100979036
 R0000114: + C0000061 = 1
  C0000001 <= 4.181818182
 C0000001 <= 10
 C0000002 <= 0.363636364 
 C0000002 <= 10
 C0000003 <=  -3.454545455 
 C0000003 <= 10
  C0000004 <=-7.272727273
 C0000004 <= 10
 C0000005 <=  -10 
 C0000005 <= 10
  C0000006 <= -10
 C0000006 <= 10
 C0000007 < -7.272727273 
 C0000007 <= 10
 C0000008 <= -3.454545455 
 C0000008 <= 10
  C0000009 <= 0.363636364 
 C0000009 <= 10
 C0000010 <=  4.181818182  
 C0000010 <= 10
  C0000011 <=-3.818181818 
 C0000011 <= 3.818181818
 C0000012 <= -7.636363636 
 C0000012 <= 7.636363636
  C0000013 <=-10 
 C0000013 <= 10
  C0000014 <=-10
 C0000014 <= 10
  C0000015 <=-10
 C0000015 <= 10
  C0000016 <=-10
 C0000016 <= 10
  C0000017 <=-10
 C0000017 <= 10
  C0000018 <=-10
 C0000018 <= 10
 C0000019 <= -7.636363636
 C0000019 <= 7.636363636
  C0000020 <=-3.818181818 
 C0000020 <= 3.818181818
  C0000021 <=-3.818181818 
 C0000021 <= 3.818181818
  C0000012 <= -7.636363636 
 C0000022 <= 7.636363636
  C0000023 <=-10 
 C0000023 <= 10
  C0000024 <=-10 
 C0000024 <= 10
  C0000025 <=-10
 C0000025 <= 10
  C0000026 <=-10
 C0000026 <= 10
  C0000027 <=-10
 C0000027 <= 10
 C0000028 <= -10
 C0000028 <= 10
 C0000029 <= -7.636363636 
 C0000029 <= 7.636363636
 C0000030 <= -3.818181818
 C0000030 <= 3.818181818
  C0000031 <=3.709090909
 C0000031<= 10
 C0000032 <= -0.581818182 
 C0000032 <= 10
 C0000033 <= -4.872727273 
 C0000033 <= 10
 C0000034 <= -9.163636364 
 C0000034 <= 10
  C0000035 <=-10 
 C0000035 <= 10
  C0000036 <=-10 
 C0000036 <= 10
  C0000037 <=-10 
 C0000037 <= 10
  C0000038 <=-10 
 C0000038 <= 10
 C0000039 <= -8.581818182 
 C0000039 <= 8.581818182
 C0000040 <= -4.290909091 
 C0000040 <= 4.290909091
 C0000041 <= -4.290909091 
 C0000041 <= 4.290909091
 C0000042 <= -8.581818182
 C0000042 <= 8.581818182
  C0000043 <=-10 
 C0000043 <= 10
  C0000044 <=-10 
 C0000044 <= 10
  C0000045 <=-10 
 C0000045 <= 10
  C0000046 <=-10
 C0000046 <= 10
  C0000047 <=-7.163636364
 C0000047 <= 10
  C0000048 <=-2.872727273
  C0000048 <= 10
 C0000049 <= 1.418181818
 C0000049 <= 10
 C0000050 <= 5.709090909  
 C0000050 <= 10
 C0000051 <= -4.290909091  
 C0000051 <= 4.290909091
 C0000052 <= -8.581818182
 C0000052 <= 8.581818182
 C0000053 <= -10
 C0000053 <= 10
 C0000054 <= -10  
 C0000054 <= 10
 C0000055 <= -10
 C0000055 <= 10
  C0000056 <=-10
 C0000056 <= 10
 C0000057 <= -10 
 C0000057 <= 10
 C0000018 <= -10
 C0000058 <= 10
 C0000059 <= -8.581818182
 C0000059 <= 8.581818182
 C0000060 <= -4.290909091
 C0000060 <= 4.290909091
 C0000061 free

End

